42    4
12    11    5    13    
0   0   0   0   0     2      2    3  
7   0   0   0   9     2      17    5  
8   0   0   0   5     2      4    24  
6   5   0   0   0     2      6    11  
6   0   9   0   0     2      8    19  
3   0   0   0   9     3      30    14    7  
7   7   0   0   0     3      25    11    16  
8   0   0   0   8     1      9  
2   6   0   0   0     2      41    10  
2   2   0   0   0     2      18    13  
3   10   0   0   0     2      12    36  
4   0   0   4   0     2      14    38  
6   0   10   0   0     2      16    19  
3   1   0   0   0     1      15  
2   1   0   0   0     4      18    28    31    41  
4   0   0   0   9     1      17  
7   0   7   0   0     3      29    20    18  
9   0   5   0   0     1      19  
6   0   4   0   0     1      21  
5   8   0   0   0     3      22    39    24  
8   6   0   0   0     2      25    35  
5   0   0   4   0     1      23  
1   0   0   4   0     3      37    38    24  
8   7   0   0   0     2      41    34  
7   10   0   0   0     2      40    26  
5   0   0   5   0     3      34    35    27  
7   0   0   1   0     2      34    28  
2   0   0   2   0     4      29    37    34    38  
4   0   0   2   0     2      30    38  
2   0   10   0   0     1      31  
1   0   0   0   6     1      32  
2   0   7   0   0     2      33    35  
4   6   0   0   0     3      36    38    35  
9   0   2   0   0     1      37  
10   4   0   0   0     1      36  
2   0   0   0   1     1      39  
6   6   0   0   0     1      38  
3   7   0   0   0     1      42  
8   0   0   0   9     1      42  
6   0   4   0   0     1      42  
7   0   0   0   3     1      42  
0   0   0   0   0     0    
